158	32	4	144	
10	10	10	10

0	0	0	0	0	0	2	1	6
1	1	1	0	1	8	1	2
2	2	0	1	4	2	1	3
3	5	2	0	5	10	1	4
4	4	7	3	0	7	1	5
5	3	0	4	3	2	1	7
6	6	0	4	6	5	1	7
7	1	2	0	5	3	1	8
8	3	4	3	0	8	1	9
9	4	5	0	6	2	1	10
10	0	3	2	3	5	1	11
11	4	3	0	1	2	1	12
12	7	0	3	4	3	2	16	13
13	2	5	0	4	3	1	14
14	3	6	6	0	6	1	15
15	0	4	5	4	9	1	17
16	0	3	4	5	5	1	17
17	1	6	0	5	10	1	18
18	8	0	5	5	7	1	19
19	5	4	4	0	8	1	20
20	6	5	0	3	5	1	21
21	3	7	0	3	4	1	22
22	7	4	5	0	3	1	23
23	0	2	3	4	3	1	24
24	0	4	5	5	8	2	27	25
25	4	0	3	2	2	1	26
26	6	0	6	3	5	1	28
27	3	2	2	0	4	1	28
28	5	0	4	5	10	1	29
29	3	0	6	4	7	1	30
30	0	5	6	6	2	1	31
31	0	0	0	0	0	0
